1 1 -2 0
1 3 4 0
1 -5 -6 0
1 7 8 0
1 7 9 0
1 -10 -8 0
1 10 11 0
1 6 -12 0
1 -6 13 0
1 -14 15 0
1 -16 17 0
1 -18 -15 0
1 18 -12 0
1 8 19 0
1 -8 20 0
1 -21 -22 0
1 21 -23 0
1 -24 21 0
1 -25 -26 0
1 -27 -28 0
1 27 -25 0
1 28 -29 0
1 -28 25 0
1 -30 -27 0
1 -29 -26 0
1 -31 -32 0
1 33 26 0
1 34 -12 0
1 -35 -36 0
1 37 32 0
1 -38 -39 0
1 38 -40 0
1 -20 41 0
1 42 -6 0
1 -43 44 0
1 -45 -43 0
1 46 47 0
1 -48 49 0
1 -19 50 0
1 51 52 0
1 -51 -53 0
1 -54 -44 0
1 44 55 0
1 50 -56 0
1 50 49 0
1 50 -57 0
1 -52 58 0
1 59 -60 0
1 61 -62 0
1 63 -60 0
1 -60 -54 0
1 62 59 0
1 -62 -55 0
1 -62 -64 0
1 65 -66 0
1 67 68 0
1 -67 69 0
1 -70 -71 0
1 71 72 0
1 73 -74 0
1 75 -30 0
1 74 -76 0
1 -74 -65 0
1 -77 -78 0
1 77 79 0
1 77 73 0
1 -80 -81 0
1 -82 83 0
1 82 65 0
1 82 80 0
1 76 -84 0
1 -76 -85 0
1 -86 26 0
1 87 26 0
1 -87 -88 0
1 -89 -81 0
1 -90 78 0
1 -88 -91 0
1 -88 76 0
1 -92 -78 0
1 39 -92 0
1 -93 94 0
1 94 -95 0
1 -94 96 0
1 -97 -30 0
1 -97 -87 0
1 -98 -99 0
1 -98 -100 0
1 36 -94 0
1 -53 101 0
1 -102 -103 0
1 102 104 0
1 102 105 0
1 106 -107 0
1 -108 -56 0
1 103 26 0
1 103 -36 0
1 101 95 0
1 109 46 0
1 -109 105 0
1 -109 4 0
1 56 -110 0
1 57 52 0
1 -111 112 0
1 -113 56 0
1 -113 104 0
1 113 37 0
1 104 57 0
1 -114 -115 0
1 114 -58 0
1 58 -114 0
1 -116 117 0
1 116 -105 0
1 118 116 0
1 47 -56 0
1 -119 -120 0
1 -115 -114 0
1 115 -58 0
1 -64 121 0
1 -122 123 0
1 -122 -124 0
1 125 124 0
1 -126 -127 0
1 -123 128 0
1 -123 -129 0
1 130 -128 0
1 131 -126 0
1 -131 120 0
1 -132 -131 0
1 133 124 0
1 -134 -124 0
1 124 -135 0
1 136 137 0
1 -138 -137 0
1 137 -138 0
1 -139 140 0
1 -139 141 0
1 -142 66 0
1 143 -144 0
1 -145 -146 0
1 145 -147 0
1 148 147 0
1 148 -149 0
1 -150 151 0
1 -150 71 0
1 -150 144 0
1 144 152 0
1 144 -148 0
1 -149 -145 0
1 -149 148 0
1 149 -143 0
1 153 -149 0
1 -84 82 0
1 84 -67 0
1 154 155 0
1 156 -84 0
1 -156 150 0
1 156 157 0
1 156 -154 0
1 158 -84 0
1 -158 150 0
1 158 159 0
1 -78 -160 0
1 78 -156 0
1 -91 -39 0
1 -91 160 0
1 91 80 0
1 -91 -74 0
1 91 -90 0
1 -157 160 0
1 -161 -162 0
1 -161 -163 0
1 164 154 0
1 164 67 0
1 -164 -161 0
1 160 161 0
1 165 83 0
1 -165 -166 0
1 165 -167 0
1 165 154 0
1 -165 70 0
1 -165 -168 0
1 72 -157 0
1 99 -169 0
1 -170 -97 0
1 -171 172 0
1 -169 -173 0
1 169 163 0
1 162 80 0
1 -162 -173 0
1 -172 -171 0
1 172 162 0
1 -174 94 0
1 174 109 0
1 -175 176 0
1 175 177 0
1 -178 179 0
1 178 180 0
1 -178 -181 0
1 176 -182 0
1 -176 -183 0
1 -184 185 0
1 -184 -182 0
1 181 186 0
1 181 -95 0
1 -181 178 0
1 187 175 0
1 187 185 0
1 -188 -108 0
1 -183 -176 0
1 183 -179 0
1 -183 -103 0
1 189 -113 0
1 189 -190 0
1 -182 107 0
1 182 184 0
1 -182 190 0
1 -179 175 0
1 191 182 0
1 191 178 0
1 -177 -186 0
1 177 -192 0
1 193 -121 0
1 193 186 0
1 193 -107 0
1 -194 111 0
1 -194 115 0
1 -194 -110 0
1 -195 -112 0
1 -195 -196 0
1 107 106 0
1 107 197 0
1 -198 -107 0
1 -199 -182 0
1 190 189 0
1 190 -200 0
1 201 -115 0
1 -197 202 0
1 112 201 0
1 -196 203 0
1 -204 201 0
1 204 195 0
1 127 130 0
1 -127 -205 0
1 206 -123 0
1 -207 -208 0
1 207 -129 0
1 -209 208 0
1 -208 210 0
1 -208 -211 0
1 -208 -212 0
1 202 210 0
1 202 -213 0
1 202 -127 0
1 214 215 0
1 -212 216 0
1 -217 215 0
1 -217 218 0
1 217 -216 0
1 219 218 0
1 219 -220 0
1 216 -212 0
1 218 221 0
1 218 -222 0
1 129 -212 0
1 -129 -222 0
1 -215 -212 0
1 223 -220 0
1 223 -224 0
1 223 225 0
1 226 -220 0
1 -225 219 0
1 -225 -226 0
1 224 -227 0
1 -224 223 0
1 135 228 0
1 -135 -124 0
1 220 -229 0
1 -220 217 0
1 220 230 0
1 231 232 0
1 -233 234 0
1 232 235 0
1 232 -236 0
1 232 -233 0
1 -232 237 0
1 -237 -236 0
1 237 233 0
1 -238 -239 0
1 236 142 0
1 -240 241 0
1 240 242 0
1 -240 243 0
1 -240 142 0
1 -240 -244 0
1 243 -245 0
1 -241 -246 0
1 247 233 0
1 -247 248 0
1 -247 -141 0
1 249 250 0
1 -249 251 0
1 249 -252 0
1 251 240 0
1 140 -241 0
1 140 -245 0
1 -253 -84 0
1 248 254 0
1 248 245 0
1 255 256 0
1 -255 253 0
1 255 257 0
1 255 -258 0
1 255 259 0
1 -254 260 0
1 254 -243 0
1 -254 -248 0
1 -242 -261 0
1 245 -253 0
1 262 256 0
1 262 -263 0
1 262 -155 0
1 -256 254 0
1 -259 264 0
1 265 266 0
1 -267 167 0
1 268 -262 0
1 268 248 0
1 263 259 0
1 167 151 0
1 -167 -99 0
1 -167 -258 0
1 -167 165 0
1 -269 -151 0
1 -269 -167 0
1 -269 270 0
1 -269 -165 0
1 266 -271 0
1 -266 270 0
1 266 -272 0
1 270 273 0
1 273 -274 0
1 -264 -275 0
1 -168 -160 0
1 168 -276 0
1 277 -273 0
1 -277 -278 0
1 180 172 0
1 180 -178 0
1 -271 -279 0
1 -271 280 0
1 271 -281 0
1 -282 -158 0
1 -282 281 0
1 283 -278 0
1 283 173 0
1 284 -271 0
1 285 286 0
1 285 185 0
1 -287 281 0
1 -278 -288 0
1 -278 279 0
1 -278 287 0
1 278 277 0
1 -278 289 0
1 186 177 0
1 -186 184 0
1 -186 185 0
1 -185 192 0
1 -185 285 0
1 290 195 0
1 291 -285 0
1 -291 292 0
1 293 291 0
1 -293 -294 0
1 295 -284 0
1 -292 296 0
1 292 297 0
1 -292 -294 0
1 -298 299 0
1 200 300 0
1 301 184 0
1 302 -303 0
1 -299 -304 0
1 305 -306 0
1 305 -204 0
1 -306 198 0
1 306 -204 0
1 -307 308 0
1 -307 309 0
1 310 -306 0
1 310 300 0
1 -310 311 0
1 -311 -300 0
1 308 312 0
1 -308 -307 0
1 -313 -314 0
1 315 311 0
1 -203 -316 0
1 -203 -204 0
1 317 311 0
1 316 203 0
1 -316 307 0
1 318 -203 0
1 319 -320 0
1 -319 -309 0
1 -321 -203 0
1 321 -319 0
1 -213 211 0
1 213 208 0
1 -210 213 0
1 -210 322 0
1 -323 -215 0
1 -323 324 0
1 -323 325 0
1 -326 -327 0
1 -326 318 0
1 328 323 0
1 328 -329 0
1 322 328 0
1 -324 204 0
1 324 330 0
1 -324 331 0
1 -324 -329 0
1 331 332 0
1 221 -135 0
1 -222 327 0
1 -229 -333 0
1 229 135 0
1 -334 333 0
1 -334 -335 0
1 -335 -334 0
1 -336 211 0
1 -336 337 0
1 325 323 0
1 338 -333 0
1 -333 337 0
1 339 340 0
1 -339 -229 0
1 339 -338 0
1 -339 334 0
1 -341 342 0
1 343 -344 0
1 -342 345 0
1 342 343 0
1 -346 345 0
1 347 -348 0
1 -347 -338 0
1 -349 350 0
1 351 -231 0
1 -352 -353 0
1 -234 -354 0
1 -353 -355 0
1 356 357 0
1 -356 355 0
1 356 234 0
1 358 359 0
1 358 -360 0
1 -359 -361 0
1 359 -362 0
1 239 -363 0
1 -239 354 0
1 244 -364 0
1 357 356 0
1 357 364 0
1 -365 366 0
1 -365 367 0
1 -365 357 0
1 -365 252 0
1 -365 -244 0
1 367 368 0
1 -367 357 0
1 367 -355 0
1 -367 -369 0
1 367 239 0
1 354 370 0
1 -354 361 0
1 -363 370 0
1 -363 371 0
1 -363 -357 0
1 372 -367 0
1 -372 373 0
1 372 374 0
1 -372 -362 0
1 375 -249 0
1 -375 -373 0
1 -376 -367 0
1 377 376 0
1 -377 -244 0
1 -378 261 0
1 364 376 0
1 -364 -357 0
1 373 375 0
1 250 -249 0
1 -379 377 0
1 380 -381 0
1 380 379 0
1 -382 -379 0
1 383 384 0
1 -383 -385 0
1 -258 -386 0
1 -387 384 0
1 -388 -381 0
1 -388 389 0
1 -388 257 0
1 -388 390 0
1 -391 392 0
1 -389 -393 0
1 389 379 0
1 389 394 0
1 389 -395 0
1 389 391 0
1 396 -247 0
1 -396 397 0
1 -381 -398 0
1 381 388 0
1 386 -399 0
1 -393 390 0
1 -397 -400 0
1 397 267 0
1 -401 402 0
1 -401 403 0
1 395 -401 0
1 402 404 0
1 390 -405 0
1 -275 -257 0
1 275 -406 0
1 275 407 0
1 -408 -275 0
1 -408 -403 0
1 -404 282 0
1 404 -257 0
1 -404 276 0
1 -409 279 0
1 409 -410 0
1 406 -404 0
1 411 412 0
1 403 -413 0
1 -403 411 0
1 403 395 0
1 403 -414 0
1 279 -409 0
1 279 -415 0
1 281 -416 0
1 288 417 0
1 -288 -409 0
1 418 416 0
1 -418 -419 0
1 415 279 0
1 415 420 0
1 -417 279 0
1 -417 297 0
1 -417 -420 0
1 421 422 0
1 -289 -423 0
1 289 415 0
1 286 -424 0
1 -286 -287 0
1 -286 285 0
1 425 426 0
1 427 294 0
1 280 288 0
1 428 288 0
1 428 -429 0
1 -430 -431 0
1 -430 418 0
1 430 -429 0
1 -294 280 0
1 294 -426 0
1 -296 426 0
1 303 432 0
1 -433 -434 0
1 433 -296 0
1 -433 314 0
1 -435 -433 0
1 -426 -436 0
1 -426 -437 0
1 -437 -438 0
1 437 425 0
1 304 299 0
1 304 -301 0
1 -314 -435 0
1 314 -439 0
1 -314 440 0
1 -434 439 0
1 -434 433 0
1 -434 432 0
1 -440 -441 0
1 432 -442 0
1 -432 -443 0
1 -444 445 0
1 -446 213 0
1 312 -311 0
1 447 439 0
1 448 -449 0
1 -448 450 0
1 448 -451 0
1 448 452 0
1 448 -453 0
1 454 -434 0
1 -454 -455 0
1 451 -456 0
1 -451 455 0
1 449 -434 0
1 449 -457 0
1 -458 -447 0
1 -330 454 0
1 -455 450 0
1 -455 318 0
1 455 -331 0
1 459 460 0
1 -459 -461 0
1 -459 -451 0
1 459 332 0
1 332 462 0
1 332 -453 0
1 -450 -463 0
1 450 -447 0
1 -450 -453 0
1 450 -329 0
1 453 459 0
1 -453 330 0
1 453 332 0
1 462 308 0
1 462 -464 0
1 -462 330 0
1 -462 455 0
1 452 462 0
1 -452 -456 0
1 465 -324 0
1 -465 -466 0
1 329 450 0
1 -329 -324 0
1 -467 -450 0
1 -461 -468 0
1 466 459 0
1 469 -459 0
1 469 470 0
1 -471 472 0
1 -473 336 0
1 -473 466 0
1 -344 336 0
1 -344 343 0
1 344 339 0
1 -474 475 0
1 474 -461 0
1 474 -476 0
1 474 339 0
1 477 -476 0
1 478 -474 0
1 476 473 0
1 476 -479 0
1 -476 470 0
1 476 -344 0
1 -476 480 0
1 481 467 0
1 340 -482 0
1 483 -333 0
1 -483 -339 0
1 -484 485 0
1 350 486 0
1 -487 -483 0
1 487 488 0
1 475 -483 0
1 482 -489 0
1 490 491 0
1 490 -483 0
1 492 -347 0
1 493 -347 0
1 -493 342 0
1 494 -495 0
1 -495 -492 0
1 -495 -484 0
1 -496 -497 0
1 -496 -484 0
1 485 492 0
1 485 484 0
1 498 488 0
1 -499 -498 0
1 -500 501 0
1 -502 503 0
1 504 -500 0
1 -505 506 0
1 -505 507 0
1 -503 502 0
1 -503 494 0
1 -508 509 0
1 -510 -508 0
1 511 -234 0
1 -512 513 0
1 -514 -511 0
1 -515 -359 0
1 515 -358 0
1 -516 -359 0
1 -516 355 0
1 516 358 0
1 517 359 0
1 -517 -358 0
1 517 518 0
1 -519 -518 0
1 -518 517 0
1 -518 -511 0
1 520 521 0
1 -522 523 0
1 -522 517 0
1 -361 524 0
1 525 -519 0
1 525 -360 0
1 -524 -370 0
1 -526 527 0
1 -526 524 0
1 -528 517 0
1 528 -362 0
1 529 371 0
1 529 -530 0
1 369 -531 0
1 -369 365 0
1 -369 -364 0
1 -370 -532 0
1 -370 360 0
1 -533 534 0
1 -535 -536 0
1 -535 -537 0
1 538 539 0
1 -538 -540 0
1 360 541 0
1 -360 -525 0
1 -360 542 0
1 532 527 0
1 -543 -538 0
1 -543 -544 0
1 543 -382 0
1 384 543 0
1 -385 -541 0
1 366 -385 0
1 366 400 0
1 -368 385 0
1 -368 -543 0
1 368 533 0
1 -368 545 0
1 -544 384 0
1 546 -543 0
1 546 -537 0
1 -400 -399 0
1 400 547 0
1 -400 366 0
1 -548 381 0
1 548 -549 0
1 -550 366 0
1 550 551 0
1 -552 -553 0
1 552 -554 0
1 551 399 0
1 551 555 0
1 -549 -556 0
1 -549 -385 0
1 -557 556 0
1 -557 -548 0
1 557 -558 0
1 -553 -559 0
1 -553 551 0
1 -553 386 0
1 -553 -396 0
1 -394 553 0
1 394 -560 0
1 -561 562 0
1 561 -563 0
1 559 564 0
1 -559 554 0
1 -565 566 0
1 -567 -413 0
1 -567 -419 0
1 -568 -413 0
1 -398 -569 0
1 410 -416 0
1 -410 -421 0
1 570 571 0
1 -571 -567 0
1 571 572 0
1 566 573 0
1 572 -566 0
1 572 574 0
1 -575 576 0
1 577 -419 0
1 -577 -573 0
1 -422 421 0
1 431 -430 0
1 431 414 0
1 578 -579 0
1 -578 580 0
1 -578 581 0
1 582 583 0
1 -582 -412 0
1 -582 -584 0
1 -581 436 0
1 581 -571 0
1 -581 585 0
1 -581 586 0
1 -412 414 0
1 -412 570 0
1 414 582 0
1 -414 -585 0
1 429 280 0
1 429 428 0
1 -429 573 0
1 436 587 0
1 -583 -429 0
1 587 -588 0
1 -587 -589 0
1 -579 590 0
1 579 -591 0
1 579 589 0
1 -592 -583 0
1 -592 -593 0
1 592 446 0
1 -592 -585 0
1 -594 -593 0
1 -594 -584 0
1 -595 442 0
1 -595 -596 0
1 -595 597 0
1 598 -592 0
1 -457 458 0
1 -443 449 0
1 -443 457 0
1 443 589 0
1 460 599 0
1 600 -601 0
1 -456 454 0
1 -456 596 0
1 456 602 0
1 -603 454 0
1 -604 452 0
1 605 604 0
1 441 -606 0
1 599 607 0
1 -608 -609 0
1 -608 -456 0
1 -608 -432 0
1 610 456 0
1 -610 444 0
1 -610 605 0
1 463 -609 0
1 -463 611 0
1 -463 -452 0
1 -612 -463 0
1 613 614 0
1 -613 -615 0
1 614 -613 0
1 611 616 0
1 -617 -606 0
1 -618 619 0
1 620 621 0
1 620 -466 0
1 -470 471 0
1 480 -476 0
1 480 -621 0
1 -486 -614 0
1 -486 350 0
1 -464 622 0
1 -623 -624 0
1 -623 -625 0
1 -623 480 0
1 479 490 0
1 -479 481 0
1 626 -627 0
1 626 628 0
1 -626 -621 0
1 628 -629 0
1 -628 -630 0
1 -628 -626 0
1 468 631 0
1 468 -632 0
1 633 -479 0
1 -634 -635 0
1 634 479 0
1 488 -496 0
1 -491 475 0
1 491 499 0
1 636 637 0
1 -638 630 0
1 638 -639 0
1 -627 -640 0
1 -627 -630 0
1 -641 642 0
1 -643 635 0
1 -643 -491 0
1 -644 -489 0
1 644 505 0
1 645 646 0
1 645 -503 0
1 489 -647 0
1 -506 648 0
1 507 -648 0
1 -649 -650 0
1 -649 -651 0
1 -652 -637 0
1 650 -646 0
1 646 653 0
1 646 -652 0
1 -654 648 0
1 655 656 0
1 657 505 0
1 -657 -658 0
1 657 654 0
1 531 -659 0
1 531 -513 0
1 -523 519 0
1 534 -659 0
1 -534 533 0
1 534 660 0
1 -661 -529 0
1 -513 527 0
1 -513 -534 0
1 659 -523 0
1 -527 -662 0
1 527 513 0
1 -542 663 0
1 664 541 0
1 665 -522 0
1 -665 666 0
1 537 -667 0
1 537 -668 0
1 537 400 0
1 669 -546 0
1 -669 -670 0
1 -671 -667 0
1 667 672 0
1 -667 -671 0
1 673 -674 0
1 673 -675 0
1 672 -539 0
1 672 -368 0
1 672 -671 0
1 545 -672 0
1 563 -561 0
1 -563 -676 0
1 677 556 0
1 677 -539 0
1 -539 678 0
1 -679 680 0
1 -681 532 0
1 681 -672 0
1 555 -539 0
1 555 552 0
1 -682 -558 0
1 -682 -676 0
1 -682 -683 0
1 684 -685 0
1 684 -686 0
1 687 688 0
1 687 689 0
1 -676 -690 0
1 676 -691 0
1 676 -544 0
1 -685 -678 0
1 685 676 0
1 -564 -423 0
1 -564 -398 0
1 692 688 0
1 -692 410 0
1 693 -694 0
1 -695 -558 0
1 683 -564 0
1 683 693 0
1 -696 -697 0
1 -686 -698 0
1 -558 695 0
1 576 699 0
1 569 -700 0
1 -701 -694 0
1 -700 -562 0
1 -700 -702 0
1 -700 695 0
1 -700 703 0
1 -700 -573 0
1 -704 705 0
1 -704 -701 0
1 704 693 0
1 705 414 0
1 -706 -707 0
1 708 706 0
1 708 -705 0
1 -708 697 0
1 708 709 0
1 -710 573 0
1 -711 -712 0
1 585 -713 0
1 -714 715 0
1 -714 -716 0
1 -588 717 0
1 588 -714 0
1 -588 716 0
1 707 718 0
1 707 -591 0
1 -707 719 0
1 720 -721 0
1 591 717 0
1 589 583 0
1 -589 598 0
1 -589 715 0
1 -715 596 0
1 715 722 0
1 -715 -719 0
1 586 -581 0
1 717 -723 0
1 717 716 0
1 716 588 0
1 716 714 0
1 -716 723 0
1 -596 -724 0
1 -722 725 0
1 722 586 0
1 726 727 0
1 728 601 0
1 -728 597 0
1 724 -729 0
1 -725 -596 0
1 -725 -730 0
1 -731 732 0
1 731 733 0
1 -731 722 0
1 -609 734 0
1 -609 735 0
1 -609 -736 0
1 -736 601 0
1 615 -613 0
1 -615 -737 0
1 -615 -597 0
1 -729 738 0
1 729 -608 0
1 597 -726 0
1 597 -739 0
1 597 -740 0
1 741 -597 0
1 741 726 0
1 -741 736 0
1 -741 -742 0
1 743 734 0
1 743 -744 0
1 743 -745 0
1 743 -746 0
1 734 747 0
1 619 748 0
1 739 -749 0
1 -739 -750 0
1 -750 622 0
1 748 -619 0
1 748 751 0
1 -748 622 0
1 -752 -619 0
1 -752 -753 0
1 749 -754 0
1 622 -755 0
1 -616 464 0
1 -756 464 0
1 -756 757 0
1 -756 -750 0
1 -629 748 0
1 -758 629 0
1 -758 739 0
1 758 759 0
1 -760 739 0
1 760 625 0
1 760 756 0
1 -755 756 0
1 625 761 0
1 625 -623 0
1 -624 -754 0
1 759 -757 0
1 -759 -762 0
1 -763 -761 0
1 763 638 0
1 -764 -635 0
1 764 765 0
1 764 766 0
1 -757 -765 0
1 761 -767 0
1 761 -624 0
1 -768 -769 0
1 768 770 0
1 768 763 0
1 768 618 0
1 -768 -625 0
1 -768 -756 0
1 -771 757 0
1 771 -762 0
1 -766 772 0
1 -772 -640 0
1 -773 -771 0
1 -640 -627 0
1 -640 773 0
1 -640 -643 0
1 -774 630 0
1 774 -773 0
1 775 647 0
1 775 -631 0
1 775 -642 0
1 -776 -777 0
1 631 640 0
1 778 779 0
1 780 781 0
1 780 -782 0
1 -780 783 0
1 -653 -631 0
1 784 785 0
1 -785 779 0
1 -786 787 0
1 642 -787 0
1 777 784 0
1 788 -789 0
1 788 -664 0
1 788 -790 0
1 -788 673 0
1 -791 792 0
1 792 793 0
1 794 -795 0
1 -795 794 0
1 -796 667 0
1 -796 -671 0
1 -675 -792 0
1 797 798 0
1 -793 -799 0
1 793 -681 0
1 -793 797 0
1 -793 -798 0
1 800 -796 0
1 800 -801 0
1 -666 -801 0
1 678 -539 0
1 802 539 0
1 -802 692 0
1 802 -803 0
1 802 804 0
1 802 805 0
1 -806 800 0
1 -806 -803 0
1 -807 695 0
1 807 680 0
1 807 676 0
1 -807 798 0
1 804 678 0
1 -804 808 0
1 -804 -793 0
1 799 809 0
1 -803 806 0
1 -805 -803 0
1 805 810 0
1 -805 -811 0
1 -699 799 0
1 -699 -685 0
1 699 -688 0
1 -699 680 0
1 690 -680 0
1 -809 812 0
1 -809 804 0
1 809 686 0
1 812 -813 0
1 812 690 0
1 -812 -814 0
1 -812 -815 0
1 680 699 0
1 814 816 0
1 -817 818 0
1 -813 -819 0
1 813 -689 0
1 -689 -820 0
1 -689 814 0
1 -821 -815 0
1 -818 -822 0
1 -702 -823 0
1 -712 824 0
1 -824 -825 0
1 -824 -698 0
1 -825 702 0
1 825 826 0
1 -825 827 0
1 823 828 0
1 -823 -829 0
1 830 831 0
1 -830 832 0
1 -830 833 0
1 -834 -835 0
1 836 -837 0
1 -838 -839 0
1 832 -840 0
1 841 707 0
1 727 831 0
1 -727 -842 0
1 831 -843 0
1 831 -721 0
1 -833 844 0
1 -833 -721 0
1 -845 -710 0
1 -845 846 0
1 -843 -731 0
1 -843 -717 0
1 -733 716 0
1 730 -833 0
1 -718 -737 0
1 718 707 0
1 -847 -848 0
1 -847 -849 0
1 -850 -851 0
1 850 -852 0
1 -850 844 0
1 853 854 0
1 853 -733 0
1 -855 856 0
1 855 732 0
1 -747 857 0
1 -747 -743 0
1 -858 734 0
1 -858 859 0
1 858 743 0
1 856 -860 0
1 -857 861 0
1 862 863 0
1 -862 -852 0
1 -864 -737 0
1 742 -865 0
1 742 -859 0
1 -744 734 0
1 -753 -749 0
1 -753 756 0
1 -859 -754 0
1 859 -861 0
1 -865 866 0
1 -865 -859 0
1 -867 -742 0
1 868 742 0
1 -754 -749 0
1 -869 763 0
1 -869 870 0
1 869 871 0
1 -869 872 0
1 740 873 0
1 -740 874 0
1 740 -871 0
1 874 -741 0
1 746 -875 0
1 -746 754 0
1 -875 876 0
1 -875 -877 0
1 878 -770 0
1 878 740 0
1 878 -879 0
1 770 879 0
1 -880 881 0
1 880 -882 0
1 769 883 0
1 -769 880 0
1 -879 765 0
1 -879 750 0
1 879 -884 0
1 -881 -885 0
1 -870 886 0
1 -765 887 0
1 -888 -774 0
1 -885 -889 0
1 885 881 0
1 -885 882 0
1 -884 -886 0
1 -890 769 0
1 882 -891 0
1 -882 -892 0
1 882 -880 0
1 -893 -894 0
1 893 779 0
1 893 -895 0
1 894 -893 0
1 -895 781 0
1 -895 -885 0
1 -895 884 0
1 -896 -897 0
1 896 -898 0
1 801 690 0
1 -811 -815 0
1 899 900 0
1 -899 -901 0
1 899 897 0
1 -902 -896 0
1 -897 903 0
1 810 680 0
1 904 -905 0
1 906 813 0
1 -901 907 0
1 908 909 0
1 908 900 0
1 -908 904 0
1 907 -818 0
1 907 680 0
1 910 702 0
1 -911 901 0
1 912 -913 0
1 912 914 0
1 912 904 0
1 913 828 0
1 -905 909 0
1 905 910 0
1 -915 -909 0
1 -914 -913 0
1 914 916 0
1 914 -917 0
1 914 823 0
1 -914 -918 0
1 -914 919 0
1 -829 -834 0
1 -829 823 0
1 -829 917 0
1 -920 921 0
1 922 923 0
1 922 924 0
1 -925 926 0
1 842 -827 0
1 -842 927 0
1 928 840 0
1 -928 -916 0
1 928 929 0
1 -928 723 0
1 -917 -928 0
1 917 925 0
1 919 -826 0
1 919 -914 0
1 -919 925 0
1 916 930 0
1 837 836 0
1 -931 -845 0
1 931 932 0
1 931 -730 0
1 -931 -927 0
1 933 -934 0
1 -827 837 0
1 935 -930 0
1 -935 936 0
1 -937 -938 0
1 939 940 0
1 -939 -850 0
1 -939 941 0
1 -942 943 0
1 944 -936 0
1 944 945 0
1 946 947 0
1 -948 -934 0
1 941 -936 0
1 -941 -949 0
1 941 832 0
1 941 844 0
1 -848 -944 0
1 852 850 0
1 -852 -744 0
1 852 847 0
1 -950 946 0
1 -950 -951 0
1 863 952 0
1 863 851 0
1 -863 946 0
1 -952 -953 0
1 954 852 0
1 954 950 0
1 -940 -945 0
1 940 -863 0
1 -951 852 0
1 -951 -955 0
1 -951 950 0
1 860 -952 0
1 -956 -957 0
1 956 958 0
1 956 -959 0
1 -960 -961 0
1 960 959 0
1 961 962 0
1 961 963 0
1 961 -860 0
1 -849 863 0
1 -851 953 0
1 -959 -860 0
1 959 964 0
1 959 -965 0
1 959 953 0
1 966 967 0
1 968 969 0
1 -968 970 0
1 -876 -958 0
1 -876 -968 0
1 957 963 0
1 -958 -962 0
1 967 -971 0
1 -967 966 0
1 972 969 0
1 -873 866 0
1 -973 866 0
1 973 974 0
1 -973 975 0
1 886 866 0
1 -886 973 0
1 -970 -891 0
1 970 -892 0
1 970 -968 0
1 -866 892 0
1 -866 -972 0
1 -976 -977 0
1 976 -972 0
1 892 -975 0
1 978 -881 0
1 -978 979 0
1 978 -980 0
1 -891 -890 0
1 -981 877 0
1 981 -982 0
1 982 892 0
1 -877 -979 0
1 983 984 0
1 983 900 0
1 983 -901 0
1 909 985 0
1 -918 986 0
1 918 987 0
1 -988 986 0
1 -988 829 0
1 -989 -909 0
1 -989 -990 0
1 -989 -991 0
1 992 909 0
1 -990 -993 0
1 -990 987 0
1 -990 -920 0
1 994 -995 0
1 -994 996 0
1 -997 988 0
1 -993 -987 0
1 998 -996 0
1 -998 999 0
1 -1000 1001 0
1 1000 -1002 0
1 1003 -1004 0
1 1003 916 0
1 1003 999 0
1 -999 1005 0
1 999 -1006 0
1 1004 -998 0
1 1004 -994 0
1 996 -1007 0
1 1008 1005 0
1 1008 -1009 0
1 930 917 0
1 1006 -1010 0
1 -1006 -916 0
1 -938 -1011 0
1 -943 -1010 0
1 943 1012 0
1 1001 -1006 0
1 1010 1003 0
1 -921 -938 0
1 921 -930 0
1 -921 920 0
1 924 -1013 0
1 924 -943 0
1 -934 -827 0
1 -949 -934 0
1 949 -1011 0
1 -949 935 0
1 -1014 1015 0
1 1016 -934 0
1 1016 -927 0
1 -1016 1017 0
1 -1018 -1014 0
1 -1019 -945 0
1 -1019 941 0
1 -1019 946 0
1 1019 951 0
1 945 940 0
1 -945 1020 0
1 1021 -1022 0
1 1023 1011 0
1 -1023 -951 0
1 -1015 1014 0
1 -1024 1014 0
1 1024 955 0
1 1025 1014 0
1 1020 1026 0
1 955 -1022 0
1 -1027 -1028 0
1 964 -1029 0
1 964 1030 0
1 -964 -947 0
1 -1031 -947 0
1 -1028 964 0
1 947 -1028 0
1 947 -964 0
1 -1030 -1022 0
1 1030 -941 0
1 1030 1021 0
1 -962 959 0
1 971 -947 0
1 -1032 -971 0
1 -1032 1033 0
1 1029 -971 0
1 -1034 -1035 0
1 1034 1036 0
1 -980 -957 0
1 -980 -978 0
1 -977 891 0
1 -1037 965 0
1 -1036 -977 0
1 -1036 -1034 0
1 -1036 -1037 0
1 -1038 -1039 0
1 1009 1040 0
1 1007 1039 0
1 1041 1042 0
1 1041 996 0
1 1043 1038 0
1 -1040 -1038 0
1 -1040 -989 0
1 -1044 -1045 0
1 -1013 1008 0
1 1013 1042 0
1 -1013 -999 0
1 1046 1047 0
1 1048 1014 0
1 -1048 -1045 0
1 1042 -1007 0
1 -1042 997 0
1 1042 -1049 0
1 1050 -1041 0
1 1045 -1013 0
1 1045 1047 0
1 -1047 -1041 0
1 -1051 1018 0
1 1052 -1053 0
1 1054 -1050 0
1 -1054 1055 0
1 -1056 -1048 0
1 -1056 1057 0
1 -1056 1026 0
1 1058 -1059 0
1 -1060 -1061 0
1 1026 1062 0
1 -1059 -1027 0
1 1059 1016 0
1 1063 1058 0
1 1063 1064 0
1 1065 -1056 0
1 -1065 -1053 0
1 1065 1025 0
1 1066 1067 0
1 -1055 -1068 0
1 -1055 1067 0
1 1062 1059 0
1 -1062 -1069 0
1 1067 1015 0
1 -1067 1022 0
1 -1067 -1055 0
1 -1068 1015 0
1 -1068 1070 0
1 -1071 -971 0
1 1017 1072 0
1 -1070 1071 0
1 1064 1065 0
1 1064 -1063 0
1 -1073 1071 0
1 1074 -1075 0
1 -1074 -1076 0
1 1074 1070 0
1 -1074 -947 0
1 -1072 -1075 0
1 -1072 1029 0
1 -1072 -1070 0
1 -1072 -1077 0
1 -1077 -1024 0
1 -1078 -1079 0
1 -1080 -1081 0
1 -1082 -1083 0
1 1082 -1078 0
1 1084 1039 0
1 -1084 -1082 0
1 -1085 1081 0
1 -1085 1060 0
1 1069 1086 0
1 1079 -1069 0
1 -1087 -1069 0
1 -1088 -1080 0
1 -1089 -1086 0
1 1089 -1053 0
1 1089 -1066 0
1 1090 -1091 0
1 -1092 -1090 0
1 -1093 1058 0
1 -1094 1090 0
1 -1086 1094 0
1 -1086 -1090 0
